p cnf 677 484
c p distribution  0.875 0.125
c p distribution  0.875 0.125
c p distribution  0.875 0.125
c p distribution  0.875 0.125
c p distribution  0.875 0.125
c p distribution  0.875 0.125
c p distribution  0.875 0.125
c p distribution  0.875 0.125
c p distribution  0.875 0.125
c p distribution  0.875 0.125
c p distribution  0.875 0.125
c p distribution  0.875 0.125
c p distribution  0.875 0.125
c p distribution  0.875 0.125
c p distribution  0.875 0.125
c p distribution  0.875 0.125
c p distribution  0.875 0.125
c p distribution  0.875 0.125
c p distribution  0.875 0.125
c p distribution  0.875 0.125
c p distribution  0.875 0.125
c p distribution  0.875 0.125
c p distribution  0.875 0.125
c p distribution  0.875 0.125
c p distribution  0.875 0.125
c p distribution  0.875 0.125
c p distribution  0.875 0.125
c p distribution  0.875 0.125
c p distribution  0.875 0.125
c p distribution  0.875 0.125
c p distribution  0.875 0.125
c p distribution  0.875 0.125
c p distribution  0.875 0.125
c p distribution  0.875 0.125
c p distribution  0.875 0.125
c p distribution  0.875 0.125
c p distribution  0.875 0.125
c p distribution  0.875 0.125
c p distribution  0.875 0.125
c p distribution  0.875 0.125
c p distribution  0.875 0.125
c p distribution  0.875 0.125
c p distribution  0.875 0.125
c p distribution  0.875 0.125
c p distribution  0.875 0.125
c p distribution  0.875 0.125
c p distribution  0.875 0.125
c p distribution  0.875 0.125
c p distribution  0.875 0.125
c p distribution  0.875 0.125
c p distribution  0.875 0.125
c p distribution  0.875 0.125
c p distribution  0.875 0.125
c p distribution  0.875 0.125
c p distribution  0.875 0.125
c p distribution  0.875 0.125
c p distribution  0.875 0.125
c p distribution  0.875 0.125
c p distribution  0.875 0.125
c p distribution  0.875 0.125
c p distribution  0.875 0.125
c p distribution  0.875 0.125
c p distribution  0.875 0.125
c p distribution  0.875 0.125
c p distribution  0.875 0.125
c p distribution  0.875 0.125
c p distribution  0.875 0.125
c p distribution  0.875 0.125
c p distribution  0.875 0.125
c p distribution  0.875 0.125
c p distribution  0.875 0.125
c p distribution  0.875 0.125
c p distribution  0.875 0.125
c p distribution  0.875 0.125
c p distribution  0.875 0.125
c p distribution  0.875 0.125
c p distribution  0.875 0.125
c p distribution  0.875 0.125
c p distribution  0.875 0.125
c p distribution  0.875 0.125
c p distribution  0.875 0.125
c p distribution  0.875 0.125
c p distribution  0.875 0.125
c p distribution  0.875 0.125
c p distribution  0.875 0.125
c p distribution  0.875 0.125
c p distribution  0.875 0.125
c p distribution  0.875 0.125
c p distribution  0.875 0.125
c p distribution  0.875 0.125
c p distribution  0.875 0.125
c p distribution  0.875 0.125
c p distribution  0.875 0.125
c p distribution  0.875 0.125
c p distribution  0.875 0.125
c p distribution  0.875 0.125
c p distribution  0.875 0.125
c p distribution  0.875 0.125
c p distribution  0.875 0.125
c p distribution  0.875 0.125
c p distribution  0.875 0.125
c p distribution  0.875 0.125
c p distribution  0.875 0.125
c p distribution  0.875 0.125
c p distribution  0.875 0.125
c p distribution  0.875 0.125
c p distribution  0.875 0.125
c p distribution  0.875 0.125
c p distribution  0.875 0.125
c p distribution  0.875 0.125
c p distribution  0.875 0.125
c p distribution  0.875 0.125
c p distribution  0.875 0.125
c p distribution  0.875 0.125
c p distribution  0.875 0.125
c p distribution  0.875 0.125
c p distribution  0.875 0.125
c p distribution  0.875 0.125
c p distribution  0.875 0.125
c p distribution  0.875 0.125
c p distribution  0.875 0.125
c p distribution  0.875 0.125
c p distribution  0.875 0.125
c p distribution  0.875 0.125
c p distribution  0.875 0.125
c p distribution  0.875 0.125
c p distribution  0.875 0.125
c p distribution  0.875 0.125
c p distribution  0.875 0.125
c p distribution  0.875 0.125
c p distribution  0.875 0.125
c p distribution  0.875 0.125
c p distribution  0.875 0.125
c p distribution  0.875 0.125
c p distribution  0.875 0.125
c p distribution  0.875 0.125
c p distribution  0.875 0.125
c p distribution  0.875 0.125
c p distribution  0.875 0.125
c p distribution  0.875 0.125
c p distribution  0.875 0.125
c p distribution  0.875 0.125
c p distribution  0.875 0.125
c p distribution  0.875 0.125
c p distribution  0.875 0.125
c p distribution  0.875 0.125
c p distribution  0.875 0.125
c p distribution  0.875 0.125
c p distribution  0.875 0.125
c p distribution  0.875 0.125
c p distribution  0.875 0.125
c p distribution  0.875 0.125
c p distribution  0.875 0.125
c p distribution  0.875 0.125
c p distribution  0.875 0.125
c p distribution  0.875 0.125
c p distribution  0.875 0.125
c p distribution  0.875 0.125
c p distribution  0.875 0.125
c p distribution  0.875 0.125
c p distribution  0.875 0.125
c p distribution  0.875 0.125
c p distribution  0.875 0.125
c p distribution  0.875 0.125
c p distribution  0.875 0.125
c p distribution  0.875 0.125
c p distribution  0.875 0.125
c p distribution  0.875 0.125
c p distribution  0.875 0.125
c p distribution  0.875 0.125
c p distribution  0.875 0.125
c p distribution  0.875 0.125
c p distribution  0.875 0.125
c p distribution  0.875 0.125
c p distribution  0.875 0.125
c p distribution  0.875 0.125
c p distribution  0.875 0.125
c p distribution  0.875 0.125
c p distribution  0.875 0.125
c p distribution  0.875 0.125
c p distribution  0.875 0.125
c p distribution  0.875 0.125
c p distribution  0.875 0.125
c p distribution  0.875 0.125
c p distribution  0.875 0.125
c p distribution  0.875 0.125
c p distribution  0.875 0.125
c p distribution  0.875 0.125
c p distribution  0.875 0.125
c p distribution  0.875 0.125
c p distribution  0.875 0.125
c p distribution  0.875 0.125
c p distribution  0.875 0.125
c p distribution  0.875 0.125
c p distribution  0.875 0.125
c p distribution  0.875 0.125
c p distribution  0.875 0.125
c p distribution  0.875 0.125
c p distribution  0.875 0.125
c p distribution  0.875 0.125
c p distribution  0.875 0.125
c p distribution  0.875 0.125
c p distribution  0.875 0.125
c p distribution  0.875 0.125
c p distribution  0.875 0.125
c p distribution  0.875 0.125
c p distribution  0.875 0.125
c p distribution  0.875 0.125
c p distribution  0.875 0.125
c p distribution  0.875 0.125
c p distribution  0.875 0.125
c p distribution  0.875 0.125
c p distribution  0.875 0.125
c p distribution  0.875 0.125
c p distribution  0.875 0.125
c p distribution  0.875 0.125
c p distribution  0.875 0.125
c p distribution  0.875 0.125
c p distribution  0.875 0.125
c p distribution  0.875 0.125
c p distribution  0.875 0.125
c p distribution  0.875 0.125
c p distribution  0.875 0.125
c p distribution  0.875 0.125
c p distribution  0.875 0.125
c p distribution  0.875 0.125
c p distribution  0.875 0.125
c p distribution  0.875 0.125
c p distribution  0.875 0.125
c p distribution  0.875 0.125
c p distribution  0.875 0.125
c p distribution  0.875 0.125
c p distribution  0.875 0.125
c p distribution  0.875 0.125
c p distribution  0.875 0.125
c p distribution  0.875 0.125
c p distribution  0.875 0.125
c p distribution  0.875 0.125
c p distribution  0.875 0.125
c p distribution  0.875 0.125
c p distribution  0.875 0.125
592 0
-500 0
645 -653 -1 0
653 -645 -1 0
628 -546 -3 0
546 -628 -3 0
564 -622 -5 0
622 -564 -5 0
505 -542 -7 0
542 -505 -7 0
615 -592 -9 0
592 -615 -9 0
491 -572 -11 0
572 -491 -11 0
604 -597 -13 0
597 -604 -13 0
483 -555 -15 0
555 -483 -15 0
506 -642 -17 0
642 -506 -17 0
526 -649 -19 0
649 -526 -19 0
520 -586 -21 0
586 -520 -21 0
564 -652 -23 0
652 -564 -23 0
559 -657 -25 0
657 -559 -25 0
540 -485 -27 0
485 -540 -27 0
484 -511 -29 0
511 -484 -29 0
632 -525 -31 0
525 -632 -31 0
486 -559 -33 0
559 -486 -33 0
641 -603 -35 0
603 -641 -35 0
598 -633 -37 0
633 -598 -37 0
616 -558 -39 0
558 -616 -39 0
552 -650 -41 0
650 -552 -41 0
553 -666 -43 0
666 -553 -43 0
582 -635 -45 0
635 -582 -45 0
545 -496 -47 0
496 -545 -47 0
665 -615 -49 0
615 -665 -49 0
616 -625 -51 0
625 -616 -51 0
615 -585 -53 0
585 -615 -53 0
503 -594 -55 0
594 -503 -55 0
634 -504 -57 0
504 -634 -57 0
604 -630 -59 0
630 -604 -59 0
577 -603 -61 0
603 -577 -61 0
642 -507 -63 0
507 -642 -63 0
645 -636 -65 0
636 -645 -65 0
642 -587 -67 0
587 -642 -67 0
486 -524 -69 0
524 -486 -69 0
650 -584 -71 0
584 -650 -71 0
585 -578 -73 0
578 -585 -73 0
636 -532 -75 0
532 -636 -75 0
638 -536 -77 0
536 -638 -77 0
577 -626 -79 0
626 -577 -79 0
566 -657 -81 0
657 -566 -81 0
551 -633 -83 0
633 -551 -83 0
550 -618 -85 0
618 -550 -85 0
491 -596 -87 0
596 -491 -87 0
645 -644 -89 0
644 -645 -89 0
632 -494 -91 0
494 -632 -91 0
660 -608 -93 0
608 -660 -93 0
661 -492 -95 0
492 -661 -95 0
620 -613 -97 0
613 -620 -97 0
577 -603 -99 0
603 -577 -99 0
642 -607 -101 0
607 -642 -101 0
672 -513 -103 0
513 -672 -103 0
569 -527 -105 0
527 -569 -105 0
573 -610 -107 0
610 -573 -107 0
559 -501 -109 0
501 -559 -109 0
595 -556 -111 0
556 -595 -111 0
565 -570 -113 0
570 -565 -113 0
570 -617 -115 0
617 -570 -115 0
492 -544 -117 0
544 -492 -117 0
618 -602 -119 0
602 -618 -119 0
613 -512 -121 0
512 -613 -121 0
653 -671 -123 0
671 -653 -123 0
547 -673 -125 0
673 -547 -125 0
579 -535 -127 0
535 -579 -127 0
641 -503 -129 0
503 -641 -129 0
510 -659 -131 0
659 -510 -131 0
569 -602 -133 0
602 -569 -133 0
640 -592 -135 0
592 -640 -135 0
573 -558 -137 0
558 -573 -137 0
510 -501 -139 0
501 -510 -139 0
588 -610 -141 0
610 -588 -141 0
517 -514 -143 0
514 -517 -143 0
613 -508 -145 0
508 -613 -145 0
654 -632 -147 0
632 -654 -147 0
507 -622 -149 0
622 -507 -149 0
559 -566 -151 0
566 -559 -151 0
576 -620 -153 0
620 -576 -153 0
647 -621 -155 0
621 -647 -155 0
541 -644 -157 0
644 -541 -157 0
612 -597 -159 0
597 -612 -159 0
526 -490 -161 0
490 -526 -161 0
510 -659 -163 0
659 -510 -163 0
670 -675 -165 0
675 -670 -165 0
567 -583 -167 0
583 -567 -167 0
554 -666 -169 0
666 -554 -169 0
571 -598 -171 0
598 -571 -171 0
609 -629 -173 0
629 -609 -173 0
589 -646 -175 0
646 -589 -175 0
608 -520 -177 0
520 -608 -177 0
583 -539 -179 0
539 -583 -179 0
595 -647 -181 0
647 -595 -181 0
487 -672 -183 0
672 -487 -183 0
652 -587 -185 0
587 -652 -185 0
528 -596 -187 0
596 -528 -187 0
523 -667 -189 0
667 -523 -189 0
538 -664 -191 0
664 -538 -191 0
537 -640 -193 0
640 -537 -193 0
506 -553 -195 0
553 -506 -195 0
533 -609 -197 0
609 -533 -197 0
631 -590 -199 0
590 -631 -199 0
569 -519 -201 0
519 -569 -201 0
494 -525 -203 0
525 -494 -203 0
554 -497 -205 0
497 -554 -205 0
641 -511 -207 0
511 -641 -207 0
522 -673 -209 0
673 -522 -209 0
664 -629 -211 0
629 -664 -211 0
573 -588 -213 0
588 -573 -213 0
529 -566 -215 0
566 -529 -215 0
516 -489 -217 0
489 -516 -217 0
611 -593 -219 0
593 -611 -219 0
548 -656 -221 0
656 -548 -221 0
591 -671 -223 0
671 -591 -223 0
568 -486 -225 0
486 -568 -225 0
628 -624 -227 0
624 -628 -227 0
615 -661 -229 0
661 -615 -229 0
560 -615 -231 0
615 -560 -231 0
506 -523 -233 0
523 -506 -233 0
645 -542 -235 0
542 -645 -235 0
562 -508 -237 0
508 -562 -237 0
502 -658 -239 0
658 -502 -239 0
497 -622 -241 0
622 -497 -241 0
533 -506 -243 0
506 -533 -243 0
582 -635 -245 0
635 -582 -245 0
578 -561 -247 0
561 -578 -247 0
571 -598 -249 0
598 -571 -249 0
550 -575 -251 0
575 -550 -251 0
569 -619 -253 0
619 -569 -253 0
536 -605 -255 0
605 -536 -255 0
493 -517 -257 0
517 -493 -257 0
488 -490 -259 0
490 -488 -259 0
645 -625 -261 0
625 -645 -261 0
669 -543 -263 0
543 -669 -263 0
623 -563 -265 0
563 -623 -265 0
635 -505 -267 0
505 -635 -267 0
639 -557 -269 0
557 -639 -269 0
502 -504 -271 0
504 -502 -271 0
577 -626 -273 0
626 -577 -273 0
636 -648 -275 0
648 -636 -275 0
565 -654 -277 0
654 -565 -277 0
486 -662 -279 0
662 -486 -279 0
488 -638 -281 0
638 -488 -281 0
637 -522 -283 0
522 -637 -283 0
548 -531 -285 0
531 -548 -285 0
614 -519 -287 0
519 -614 -287 0
667 -519 -289 0
519 -667 -289 0
501 -595 -291 0
595 -501 -291 0
574 -499 -293 0
499 -574 -293 0
641 -493 -295 0
493 -641 -295 0
501 -563 -297 0
563 -501 -297 0
497 -507 -299 0
507 -497 -299 0
617 -490 -301 0
490 -617 -301 0
666 -500 -303 0
500 -666 -303 0
484 -535 -305 0
535 -484 -305 0
641 -603 -307 0
603 -641 -307 0
668 -522 -309 0
522 -668 -309 0
552 -677 -311 0
677 -552 -311 0
656 -556 -313 0
556 -656 -313 0
601 -584 -315 0
584 -601 -315 0
664 -590 -317 0
590 -664 -317 0
593 -630 -319 0
630 -593 -319 0
610 -558 -321 0
558 -610 -321 0
665 -557 -323 0
557 -665 -323 0
606 -495 -325 0
495 -606 -325 0
582 -559 -327 0
559 -582 -327 0
641 -603 -329 0
603 -641 -329 0
487 -540 -331 0
540 -487 -331 0
641 -579 -333 0
579 -641 -333 0
672 -514 -335 0
514 -672 -335 0
486 -572 -337 0
572 -486 -337 0
546 -531 -339 0
531 -546 -339 0
580 -539 -341 0
539 -580 -341 0
545 -509 -343 0
509 -545 -343 0
626 -510 -345 0
510 -626 -345 0
643 -651 -347 0
651 -643 -347 0
675 -673 -349 0
673 -675 -349 0
568 -539 -351 0
539 -568 -351 0
536 -676 -353 0
676 -536 -353 0
641 -603 -355 0
603 -641 -355 0
593 -534 -357 0
534 -593 -357 0
543 -601 -359 0
601 -543 -359 0
600 -512 -361 0
512 -600 -361 0
637 -668 -363 0
668 -637 -363 0
611 -549 -365 0
549 -611 -365 0
676 -649 -367 0
649 -676 -367 0
576 -656 -369 0
656 -576 -369 0
641 -503 -371 0
503 -641 -371 0
510 -501 -373 0
501 -510 -373 0
486 -520 -375 0
520 -486 -375 0
639 -557 -377 0
557 -639 -377 0
645 -532 -379 0
532 -645 -379 0
545 -509 -381 0
509 -545 -381 0
551 -494 -383 0
494 -551 -383 0
579 -515 -385 0
515 -579 -385 0
649 -525 -387 0
525 -649 -387 0
605 -615 -389 0
615 -605 -389 0
506 -609 -391 0
609 -506 -391 0
483 -512 -393 0
512 -483 -393 0
575 -550 -395 0
550 -575 -395 0
551 -571 -397 0
571 -551 -397 0
600 -530 -399 0
530 -600 -399 0
510 -659 -401 0
659 -510 -401 0
530 -657 -403 0
657 -530 -403 0
654 -525 -405 0
525 -654 -405 0
658 -594 -407 0
594 -658 -407 0
642 -607 -409 0
607 -642 -409 0
565 -617 -411 0
617 -565 -411 0
611 -567 -413 0
567 -611 -413 0
598 -592 -415 0
592 -598 -415 0
599 -496 -417 0
496 -599 -417 0
538 -495 -419 0
495 -538 -419 0
501 -647 -421 0
647 -501 -421 0
570 -509 -423 0
509 -570 -423 0
634 -513 -425 0
513 -634 -425 0
602 -619 -427 0
619 -602 -427 0
585 -544 -429 0
544 -585 -429 0
497 -668 -431 0
668 -497 -431 0
498 -619 -433 0
619 -498 -433 0
531 -627 -435 0
627 -531 -435 0
611 -589 -437 0
589 -611 -437 0
674 -588 -439 0
588 -674 -439 0
563 -641 -441 0
641 -563 -441 0
485 -655 -443 0
655 -485 -443 0
631 -643 -445 0
643 -631 -445 0
623 -586 -447 0
586 -623 -447 0
614 -560 -449 0
560 -614 -449 0
599 -496 -451 0
496 -599 -451 0
532 -653 -453 0
653 -532 -453 0
533 -651 -455 0
651 -533 -455 0
581 -618 -457 0
618 -581 -457 0
625 -542 -459 0
542 -625 -459 0
617 -526 -461 0
526 -617 -461 0
624 -518 -463 0
518 -624 -463 0
575 -632 -465 0
632 -575 -465 0
655 -518 -467 0
518 -655 -467 0
640 -676 -469 0
676 -640 -469 0
651 -629 -471 0
629 -651 -471 0
489 -605 -473 0
605 -489 -473 0
489 -557 -475 0
557 -489 -475 0
603 -493 -477 0
493 -603 -477 0
644 -648 -479 0
648 -644 -479 0
488 -638 -481 0
638 -488 -481 0

